words_hard_train/5916.qaiger
aag 158 16 0 1 142
2
4
8
12
16
20
24
28
36
38
42
46
52
58
64
68
317
6 3 5
10 6 9
14 10 13
18 14 17
22 18 21
26 22 25
30 26 29
32 27 28
34 31 33
40 37 38
44 42 38
48 46 38
50 45 49
54 52 38
56 50 55
60 56 59
62 61 38
66 63 65
70 66 69
72 40 70
74 35 72
76 34 73
78 75 77
80 46 2
82 48 43
84 49 42
86 83 85
88 2 4
90 89 7
92 86 91
94 87 90
96 93 95
98 80 96
100 99 95
102 51 52
104 50 53
106 103 105
108 7 8
110 109 11
112 107 111
114 106 110
116 113 115
118 101 116
120 119 115
122 57 58
124 123 61
126 11 12
128 127 15
130 125 129
132 124 128
134 131 133
136 121 134
138 137 133
140 62 64
142 141 67
144 15 16
146 145 19
148 143 147
150 142 146
152 149 151
154 139 152
156 155 151
158 67 38
160 159 69
162 158 68
164 161 163
166 19 20
168 167 23
170 165 169
172 164 168
174 171 173
176 157 174
178 177 173
180 71 38
182 181 36
184 180 37
186 183 185
188 23 24
190 189 27
192 186 191
194 187 190
196 193 195
198 179 196
200 199 195
202 79 201
204 78 200
206 203 205
208 207 38
210 156 175
212 211 177
214 212 69
216 120 135
218 217 137
220 81 97
222 221 99
224 100 117
226 225 119
228 223 227
230 47 3
232 231 81
234 228 233
236 219 234
238 138 153
240 239 155
242 236 241
244 242 213
246 215 245
248 178 197
250 249 199
252 245 250
254 244 251
256 253 255
258 257 37
260 246 259
262 213 68
264 219 58
266 222 43
268 266 53
270 267 52
272 271 226
274 269 273
276 275 235
278 218 59
280 277 279
282 265 281
284 241 64
286 282 285
288 240 65
290 287 289
292 291 243
294 263 292
296 260 295
298 296 254
300 208 299
302 253 36
304 206 39
306 303 305
308 306 255
310 308 297
312 301 311
314 298 304
316 312 315
i0 2 y1[0]
i1 2 y1[1]
i2 2 y1[2]
i3 2 y1[3]
i4 2 y1[4]
i5 2 y1[5]
i6 2 y1[6]
i7 2 y1[7]
i8 1 x2[6]
i9 1 x2[7]
i10 1 x2[1]
i11 1 x2[0]
i12 1 x2[2]
i13 1 x2[3]
i14 1 x2[4]
i15 1 x2[5]
o0 bv[0]
c
simplified
  >
    subtract
      abs
        1 x2
      2 y1
    or
      1 x2
      1
