words_hard_train/5916.qaiger.qdimacs
p cnf 158 427
a 32 34 18 19 21 23 26 29 0
e 1 2 3 4 5 6 7 8 9 10 11 12 13 14 15 16 17 20 22 24 25 27 28 30 31 33 35 36 37 38 39 40 41 42 43 44 45 46 47 48 49 50 51 52 53 54 55 56 57 58 59 60 61 62 63 64 65 66 67 68 69 70 71 72 73 74 75 76 77 78 79 80 81 82 83 84 85 86 87 88 89 90 91 92 93 94 95 96 97 98 99 100 101 102 103 104 105 106 107 108 109 110 111 112 113 114 115 116 117 118 119 120 121 122 123 124 125 126 127 128 129 130 131 132 133 134 135 136 137 138 139 140 141 142 143 144 145 146 147 148 149 150 151 152 153 154 155 156 157 158 0
1 2 3 0
-1 -3 0
-2 -3 0
-3 4 5 0
3 -5 0
-4 -5 0
-5 6 7 0
5 -7 0
-6 -7 0
-7 8 9 0
7 -9 0
-8 -9 0
-9 10 11 0
9 -11 0
-10 -11 0
-11 12 13 0
11 -13 0
-12 -13 0
-13 14 15 0
13 -15 0
-14 -15 0
13 -14 16 0
-13 -16 0
14 -16 0
15 16 17 0
-15 -17 0
-16 -17 0
18 -19 20 0
-18 -20 0
19 -20 0
-21 -19 22 0
21 -22 0
19 -22 0
-23 -19 24 0
23 -24 0
19 -24 0
22 24 25 0
-22 -25 0
-24 -25 0
-26 -19 27 0
26 -27 0
19 -27 0
-25 27 28 0
25 -28 0
-27 -28 0
-28 29 30 0
28 -30 0
-29 -30 0
30 -19 31 0
-30 -31 0
19 -31 0
31 32 33 0
-31 -33 0
-32 -33 0
-33 34 35 0
33 -35 0
-34 -35 0
-20 -35 36 0
20 -36 0
35 -36 0
17 -36 37 0
-17 -37 0
36 -37 0
-17 36 38 0
17 -38 0
-36 -38 0
37 38 39 0
-37 -39 0
-38 -39 0
-23 -1 40 0
23 -40 0
1 -40 0
-24 21 41 0
24 -41 0
-21 -41 0
24 -21 42 0
-24 -42 0
21 -42 0
41 42 43 0
-41 -43 0
-42 -43 0
-1 -2 44 0
1 -44 0
2 -44 0
44 3 45 0
-44 -45 0
-3 -45 0
-43 45 46 0
43 -46 0
-45 -46 0
43 -45 47 0
-43 -47 0
45 -47 0
46 47 48 0
-46 -48 0
-47 -48 0
-40 -48 49 0
40 -49 0
48 -49 0
49 47 50 0
-49 -50 0
-47 -50 0
25 -26 51 0
-25 -51 0
26 -51 0
-25 26 52 0
25 -52 0
-26 -52 0
51 52 53 0
-51 -53 0
-52 -53 0
3 -4 54 0
-3 -54 0
4 -54 0
54 5 55 0
-54 -55 0
-5 -55 0
53 55 56 0
-53 -56 0
-55 -56 0
-53 -55 57 0
53 -57 0
55 -57 0
56 57 58 0
-56 -58 0
-57 -58 0
50 -58 59 0
-50 -59 0
58 -59 0
59 57 60 0
-59 -60 0
-57 -60 0
28 -29 61 0
-28 -61 0
29 -61 0
61 30 62 0
-61 -62 0
-30 -62 0
5 -6 63 0
-5 -63 0
6 -63 0
63 7 64 0
-63 -64 0
-7 -64 0
62 64 65 0
-62 -65 0
-64 -65 0
-62 -64 66 0
62 -66 0
64 -66 0
65 66 67 0
-65 -67 0
-66 -67 0
60 -67 68 0
-60 -68 0
67 -68 0
68 66 69 0
-68 -69 0
-66 -69 0
-31 -32 70 0
31 -70 0
32 -70 0
70 33 71 0
-70 -71 0
-33 -71 0
7 -8 72 0
-7 -72 0
8 -72 0
72 9 73 0
-72 -73 0
-9 -73 0
71 73 74 0
-71 -74 0
-73 -74 0
-71 -73 75 0
71 -75 0
73 -75 0
74 75 76 0
-74 -76 0
-75 -76 0
69 -76 77 0
-69 -77 0
76 -77 0
77 75 78 0
-77 -78 0
-75 -78 0
33 -19 79 0
-33 -79 0
19 -79 0
79 34 80 0
-79 -80 0
-34 -80 0
-79 -34 81 0
79 -81 0
34 -81 0
80 81 82 0
-80 -82 0
-81 -82 0
9 -10 83 0
-9 -83 0
10 -83 0
83 11 84 0
-83 -84 0
-11 -84 0
82 84 85 0
-82 -85 0
-84 -85 0
-82 -84 86 0
82 -86 0
84 -86 0
85 86 87 0
-85 -87 0
-86 -87 0
78 -87 88 0
-78 -88 0
87 -88 0
88 86 89 0
-88 -89 0
-86 -89 0
35 -19 90 0
-35 -90 0
19 -90 0
90 -18 91 0
-90 -91 0
18 -91 0
-90 18 92 0
90 -92 0
-18 -92 0
91 92 93 0
-91 -93 0
-92 -93 0
11 -12 94 0
-11 -94 0
12 -94 0
94 13 95 0
-94 -95 0
-13 -95 0
-93 95 96 0
93 -96 0
-95 -96 0
93 -95 97 0
-93 -97 0
95 -97 0
96 97 98 0
-96 -98 0
-97 -98 0
89 -98 99 0
-89 -99 0
98 -99 0
99 97 100 0
-99 -100 0
-97 -100 0
39 100 101 0
-39 -101 0
-100 -101 0
-39 -100 102 0
39 -102 0
100 -102 0
101 102 103 0
-101 -103 0
-102 -103 0
103 -19 104 0
-103 -104 0
19 -104 0
-78 87 105 0
78 -105 0
-87 -105 0
105 88 106 0
-105 -106 0
-88 -106 0
-106 34 107 0
106 -107 0
-34 -107 0
-60 67 108 0
60 -108 0
-67 -108 0
108 68 109 0
-108 -109 0
-68 -109 0
40 48 110 0
-40 -110 0
-48 -110 0
110 49 111 0
-110 -111 0
-49 -111 0
-50 58 112 0
50 -112 0
-58 -112 0
112 59 113 0
-112 -113 0
-59 -113 0
111 113 114 0
-111 -114 0
-113 -114 0
23 1 115 0
-23 -115 0
-1 -115 0
115 40 116 0
-115 -116 0
-40 -116 0
-114 116 117 0
114 -117 0
-116 -117 0
109 -117 118 0
-109 -118 0
117 -118 0
-69 76 119 0
69 -119 0
-76 -119 0
119 77 120 0
-119 -120 0
-77 -120 0
-118 120 121 0
118 -121 0
-120 -121 0
-121 106 122 0
121 -122 0
-106 -122 0
107 122 123 0
-107 -123 0
-122 -123 0
-89 98 124 0
89 -124 0
-98 -124 0
124 99 125 0
-124 -125 0
-99 -125 0
122 -125 126 0
-122 -126 0
125 -126 0
-122 125 127 0
122 -127 0
-125 -127 0
126 127 128 0
-126 -128 0
-127 -128 0
128 18 129 0
-128 -129 0
-18 -129 0
-123 129 130 0
123 -130 0
-129 -130 0
106 -34 131 0
-106 -131 0
34 -131 0
109 -29 132 0
-109 -132 0
29 -132 0
-111 21 133 0
111 -133 0
-21 -133 0
-133 26 134 0
133 -134 0
-26 -134 0
133 -26 135 0
-133 -135 0
26 -135 0
135 -113 136 0
-135 -136 0
113 -136 0
134 136 137 0
-134 -137 0
-136 -137 0
137 117 138 0
-137 -138 0
-117 -138 0
-109 29 139 0
109 -139 0
-29 -139 0
138 139 140 0
-138 -140 0
-139 -140 0
132 140 141 0
-132 -141 0
-140 -141 0
120 -32 142 0
-120 -142 0
32 -142 0
-141 142 143 0
141 -143 0
-142 -143 0
-120 32 144 0
120 -144 0
-32 -144 0
143 144 145 0
-143 -145 0
-144 -145 0
145 121 146 0
-145 -146 0
-121 -146 0
131 -146 147 0
-131 -147 0
146 -147 0
-130 147 148 0
130 -148 0
-147 -148 0
-148 -127 149 0
148 -149 0
127 -149 0
-104 149 150 0
104 -150 0
-149 -150 0
126 -18 151 0
-126 -151 0
18 -151 0
-103 19 152 0
103 -152 0
-19 -152 0
151 152 153 0
-151 -153 0
-152 -153 0
-153 127 154 0
153 -154 0
-127 -154 0
-154 148 155 0
154 -155 0
-148 -155 0
150 155 156 0
-150 -156 0
-155 -156 0
-149 -152 157 0
149 -157 0
152 -157 0
-156 157 158 0
156 -158 0
-157 -158 0
-158 0
